0 79 45 16 74 31 50 89 98 55 90 26 24 93 76 
79 0 68 11 98 85 23 94 52 87 89 35 44 28 39 
45 68 0 52 50 75 83 89 81 43 100 23 82 39 55 
16 11 52 0 82 48 53 60 14 56 12 27 81 62 93 
74 98 50 82 0 35 15 35 74 64 88 72 65 70 35 
31 85 75 48 35 0 6 28 95 87 35 38 32 53 30 
50 23 83 53 15 6 0 85 37 72 93 41 38 67 94 
89 94 89 60 35 28 85 0 82 71 13 75 56 84 89 
98 52 81 14 74 95 37 82 0 31 69 94 70 47 97 
55 87 43 56 64 87 72 71 31 0 4 67 19 17 79 
90 89 100 12 88 35 93 13 69 4 0 14 66 20 20 
26 35 23 27 72 38 41 75 94 67 14 0 94 35 41 
24 44 82 81 65 32 38 56 70 19 66 94 0 60 60 
93 28 39 62 70 53 67 84 47 17 20 35 60 0 83 
76 39 55 93 35 30 94 89 97 79 20 41 60 83 0 
